1000 100
377 114
109 335
251 156
287 411
357 255
375 315
381 214
28 41
99 78
175 155
114 367
265 50
473 40
473 441
422 265
263 158
126 406
256 197
299 299
380 132
420 416
326 159
207 387
13 89
396 415
11 9
119 26
348 192
481 443
390 379
490 454
400 223
126 371
32 377
109 38
40 39
422 475
180 355
131 357
384 111
51 378
384 371
351 245
67 464
321 139
231 493
322 63
484 173
198 434
399 105
237 413
398 105
333 8
442 214
125 41
270 379
450 470
493 453
496 225
91 82
485 359
405 34
348 88
123 3
22 201
323 31
387 113
478 419
477 54
195 260
191 74
82 38
351 344
389 311
340 414
373 100
126 193
339 67
165 199
283 349
304 443
222 128
484 288
472 81
114 285
262 27
192 159
482 372
417 81
494 424
448 184
309 350
292 132
326 273
154 211
436 213
215 284
32 475
155 72
184 153
